132
1071
93
0 1
0 19
0 73
0 76
0 83
0 85
1 2
1 5
1 6
1 9
1 15
1 19
1 21
1 22
1 23
1 25
1 27
1 28
1 29
1 37
1 73
1 76
1 78
1 83
1 85
1 99
1 107
2 5
2 8
2 21
2 22
2 23
2 25
2 27
2 28
2 37
2 62
2 74
2 78
3 4
3 12
3 14
3 15
3 16
3 24
3 26
3 52
3 72
3 75
3 79
3 92
3 95
3 113
3 128
3 129
4 12
4 14
4 15
4 16
4 24
4 26
4 65
4 68
4 70
4 77
4 80
4 81
4 82
4 95
5 8
5 21
5 22
5 23
5 25
5 27
5 28
5 35
5 37
5 41
5 43
5 45
5 54
5 57
5 59
5 60
5 62
5 69
5 74
5 78
6 9
6 15
6 19
6 24
6 26
6 29
6 37
6 46
6 95
6 99
6 107
6 125
7 8
7 12
7 14
7 16
7 30
7 98
7 105
8 12
8 14
8 16
8 30
8 62
8 74
8 78
8 98
8 105
9 15
9 29
9 37
9 99
9 107
10 11
10 13
10 17
10 19
10 20
10 48
10 49
10 76
10 85
10 89
11 13
11 17
11 19
11 20
11 32
11 35
11 48
11 49
11 76
11 85
11 89
11 109
12 14
12 15
12 16
12 24
12 26
12 30
12 52
12 72
12 75
12 79
12 92
12 95
12 98
12 105
12 113
12 128
12 129
13 17
13 19
13 20
13 23
13 32
13 35
13 39
13 48
13 49
13 51
13 76
13 85
13 89
13 93
13 109
14 15
14 16
14 24
14 26
14 30
14 95
14 98
14 105
15 16
15 19
15 24
15 26
15 29
15 37
15 46
15 95
15 99
15 107
15 125
16 24
16 26
16 30
16 65
16 68
16 70
16 77
16 80
16 81
16 82
16 95
16 98
16 105
17 19
17 20
17 33
17 34
17 36
17 42
17 48
17 49
17 55
17 66
17 67
17 76
17 85
17 89
17 102
17 104
17 112
17 113
17 114
17 128
17 130
18 20
18 48
18 49
18 89
18 118
19 20
19 24
19 26
19 29
19 46
19 48
19 49
19 73
19 76
19 83
19 85
19 89
19 95
19 125
20 48
20 49
20 76
20 85
20 89
20 118
21 22
21 23
21 25
21 27
21 28
21 37
21 50
21 51
21 55
21 78
21 87
21 90
21 91
21 93
21 110
22 23
22 25
22 27
22 28
22 37
22 78
23 25
23 27
23 28
23 32
23 37
23 39
23 50
23 51
23 55
23 78
23 87
23 90
23 91
23 93
23 110
24 26
24 29
24 46
24 52
24 72
24 75
24 79
24 92
24 95
24 113
24 125
24 128
24 129
25 27
25 28
25 37
25 40
25 44
25 47
25 52
25 53
25 56
25 58
25 78
26 29
26 46
26 65
26 68
26 70
26 77
26 80
26 81
26 82
26 84
26 87
26 88
26 95
26 112
26 125
26 131
27 28
27 34
27 35
27 37
27 41
27 43
27 45
27 54
27 57
27 59
27 60
27 69
27 78
27 116
27 124
27 129
27 131
28 37
28 40
28 44
28 47
28 52
28 53
28 56
28 58
28 70
28 78
28 82
28 92
28 94
28 96
28 97
29 30
29 31
29 37
29 46
29 72
29 95
29 98
29 99
29 105
29 107
29 117
29 125
30 31
30 37
30 72
30 98
30 99
30 105
30 107
30 117
31 37
31 72
31 98
31 99
31 105
31 107
31 117
32 35
32 39
32 49
32 51
32 61
32 62
32 65
32 68
32 70
32 76
32 93
32 109
33 34
33 36
33 42
33 55
33 66
33 67
33 102
33 104
33 112
33 113
33 114
33 128
33 130
34 35
34 36
34 42
34 55
34 59
34 66
34 67
34 101
34 103
34 116
34 124
34 129
34 131
35 38
35 40
35 41
35 43
35 44
35 45
35 49
35 54
35 57
35 59
35 60
35 63
35 69
35 76
35 109
35 116
35 124
35 129
35 131
36 42
36 55
36 66
36 67
36 101
36 103
37 42
37 55
37 64
37 66
37 67
37 72
37 78
37 90
37 98
37 99
37 105
37 107
37 117
38 40
38 41
38 43
38 44
38 45
38 63
38 69
39 51
39 93
40 41
40 43
40 44
40 45
40 47
40 52
40 53
40 56
40 58
40 63
40 69
41 43
41 44
41 45
41 54
41 57
41 59
41 60
41 63
41 69
41 117
41 119
41 121
42 55
42 64
42 66
42 67
42 72
42 90
43 44
43 45
43 54
43 57
43 59
43 60
43 63
43 69
43 82
43 122
43 128
43 130
44 45
44 47
44 52
44 53
44 56
44 58
44 63
44 68
44 69
44 81
44 86
44 92
44 94
44 96
44 97
44 123
45 54
45 57
45 59
45 60
45 63
45 69
46 48
46 49
46 63
46 84
46 89
46 95
46 106
46 118
46 125
46 126
47 52
47 53
47 56
47 58
47 61
47 62
47 71
47 73
47 74
47 76
47 78
47 83
47 85
47 92
47 94
47 96
47 97
47 104
47 113
47 124
47 128
47 129
47 130
48 49
48 63
48 76
48 84
48 85
48 89
48 95
48 106
48 118
48 125
48 126
49 63
49 76
49 84
49 85
49 89
49 95
49 106
49 109
49 118
49 125
49 126
50 51
50 55
50 87
50 90
50 91
50 93
50 110
51 55
51 87
51 90
51 91
51 93
51 110
52 53
52 56
52 58
52 72
52 75
52 79
52 83
52 85
52 92
52 94
52 96
52 97
52 104
52 113
52 124
52 128
52 129
52 130
53 56
53 58
54 57
54 59
54 60
54 69
54 117
54 119
54 121
55 64
55 66
55 67
55 72
55 87
55 90
55 91
55 93
55 110
56 58
56 68
56 81
56 86
56 92
56 94
56 96
56 97
56 123
57 59
57 60
57 69
57 82
57 122
57 128
57 130
58 70
58 82
58 92
58 94
58 96
58 97
59 60
59 69
59 116
59 124
59 129
59 131
60 69
61 62
61 65
61 68
61 70
61 71
61 73
61 74
61 76
61 78
61 83
61 85
61 104
61 124
62 65
62 68
62 70
62 71
62 73
62 74
62 76
62 78
62 83
62 85
62 104
62 124
63 64
63 66
63 67
63 69
63 72
63 75
63 84
63 89
63 92
63 95
63 106
63 118
63 125
63 126
64 66
64 67
64 69
64 72
64 75
64 90
64 92
65 68
65 70
65 77
65 80
65 81
65 82
66 67
66 69
66 72
66 75
66 90
66 92
67 69
67 72
67 75
67 90
67 92
67 102
68 70
68 77
68 80
68 81
68 82
68 86
68 97
68 123
69 72
69 75
69 92
70 77
70 80
70 81
70 82
70 117
70 118
70 119
70 120
70 121
70 122
71 73
71 74
71 76
71 78
71 83
71 85
71 104
71 124
72 75
72 79
72 90
72 92
72 98
72 99
72 105
72 107
72 113
72 117
72 128
72 129
73 74
73 76
73 78
73 83
73 85
73 104
73 124
74 76
74 78
74 83
74 85
74 104
74 124
75 79
75 92
75 113
75 128
75 129
76 78
76 83
76 85
76 89
76 104
76 109
76 124
77 80
77 81
77 82
77 84
77 87
77 88
77 89
77 90
77 91
77 93
77 95
77 112
77 131
78 83
78 85
78 104
78 124
79 92
79 113
79 128
79 129
80 81
80 82
80 84
80 87
80 88
80 112
80 131
81 82
81 86
81 97
81 123
82 117
82 118
82 119
82 120
82 121
82 122
82 128
82 130
83 85
83 92
83 94
83 104
83 113
83 124
83 128
83 129
83 130
84 87
84 88
84 89
84 90
84 91
84 93
84 95
84 106
84 112
84 118
84 125
84 126
84 131
85 89
85 92
85 94
85 104
85 113
85 124
85 128
85 129
85 130
86 97
86 98
86 99
86 100
86 105
86 107
86 108
86 109
86 115
86 117
86 119
86 123
87 88
87 89
87 90
87 91
87 93
87 95
87 110
87 112
87 131
88 112
88 131
89 90
89 91
89 93
89 95
89 106
89 112
89 118
89 125
89 126
90 91
90 93
90 95
90 110
90 112
91 93
91 95
91 110
91 112
92 94
92 96
92 97
92 104
92 113
92 124
92 128
92 129
92 130
93 95
93 110
93 112
94 96
94 97
94 104
94 113
94 124
94 128
94 129
94 130
95 106
95 112
95 118
95 125
95 126
96 97
97 123
98 99
98 100
98 105
98 107
98 108
98 109
98 117
98 119
99 100
99 105
99 107
99 108
99 109
99 117
99 119
100 105
100 107
100 108
100 109
100 117
100 119
101 103
101 106
101 110
101 111
101 118
101 120
101 125
101 126
101 127
104 112
104 113
104 114
104 124
104 128
104 129
104 130
105 107
105 108
105 109
105 115
105 117
105 119
106 110
106 111
106 116
106 118
106 120
106 123
106 125
106 126
106 127
107 108
107 109
107 115
107 117
107 119
108 109
108 115
108 117
108 119
109 115
109 117
109 119
110 111
110 116
110 118
110 120
110 123
110 125
110 126
110 127
111 116
111 118
111 120
111 123
111 125
111 126
111 127
112 113
112 114
112 128
112 130
112 131
113 114
113 124
113 128
113 129
113 130
114 128
114 130
116 123
116 124
116 129
116 131
117 118
117 119
117 120
117 121
117 122
118 119
118 120
118 121
118 122
118 125
118 126
118 127
119 120
119 121
119 122
120 121
120 122
120 125
120 126
120 127
121 122
122 128
122 130
123 124
123 129
123 131
124 128
124 129
124 130
124 131
125 126
125 127
126 127
128 129
128 130
129 130
129 131
0
1 2
3
4
5
6 7
8 9
10
11
12 13
14 15
16 17
18
19 20
21
22
23 24
25 26
27 28
29 30
31
32
33
34 35
36
37 38
39
40
41 42
43 44
45
46 47
48
49 50
51 52
53
54 55
56 57
58 59
60
61
62 63
64
65
66
67 68
69 70
71
72 73
74
75 76
77 78
79
80
81 82
83
84
85 86
87
88
89 90
91 92
93
94 95
96
97
98
99
100
101
102
103
104 105
106 107
108
109 110
111 112
113
114
115
116
117 118
119
120
121
122
123
124 125
126
127
128 129
130
131
